PARAMETER_FILE = even/even_complete_graph_new/par/random165.par
PROBLEM_FILE = even/even_complete_graph_new/mat/random165.tsp
Successes/Runs = 0/10
Cost.min = 954, Cost.avg = 954.00, Cost.max = 954
Gap.min = 0.0000%, Gap.avg = 0.0000%, Gap.max = 0.0000%
Trials.min = 1000, Trials.avg = 1000.0, Trials.max = 1000
Time.min = 0.59 sec., Time.avg = 0.68 sec., Time.max = 0.74 sec.
Time.total = 6.93 sec.
请按任意键继续. . . 
